data/easy_7.lp
node(1..5).

ufficio_postale(3).

dim_borsa(100).

time(1..10).

lettere(1,19).
lettere(2,8).
lettere(3,0).
lettere(4,0).
lettere(5,0).

costo_arco(1, 1, 0).
costo_arco(1, 2, 18).
costo_arco(1, 3, 25).
costo_arco(1, 4, 8).
costo_arco(1, 5, 15).

costo_arco(2, 1, 9).
costo_arco(2, 2, 0).
costo_arco(2, 3, 10).
costo_arco(2, 4, 25).
costo_arco(2, 5, 7).

costo_arco(3, 1, 2).
costo_arco(3, 2, 2).
costo_arco(3, 3, 0).
costo_arco(3, 4, 22).
costo_arco(3, 5, 7).

costo_arco(4, 1, 19).
costo_arco(4, 2, 20).
costo_arco(4, 3, 10).
costo_arco(4, 4, 0).
costo_arco(4, 5, 13).

costo_arco(5, 1, 19).
costo_arco(5, 2, 22).
costo_arco(5, 3, 18).
costo_arco(5, 4, 8).
costo_arco(5, 5, 0).

